NOMBRE : TEST-RESCOL-A1
COMENTARIO : Ejemplo de formato
VERTICES : 25
ARISTAS_REQ : 40
ARISTAS_NOREQ : 0
RESTRICCIONES : 3
NODOS_INICIALES : 3
NODOS_TERMINO : 0
LISTA_ARISTAS_REQ :
bi 1 2 4 1
bi 2 3 2 1
bi 4 3 10 1
bi 5 4 8 1
uni 1 6 9 1
uni 7 2 3 1
uni 3 8 2 1
uni 9 4 1 1
uni 5 10 8 1
bi 7 6 2 1
bi 8 7 2 1
bi 9 8 7 1
bi 10 9 8 1
uni 6 11 9 1
uni 12 7 2 1
uni 8 13 3 1
uni 14 9 9 1
uni 10 15 8 1
bi 12 11 8 1
bi 13 12 4 1
bi 13 14 2 1
bi 15 14 8 1
uni 11 16 4 1
uni 17 12 3 1
uni 13 18 8 1
uni 19 14 9 1
uni 15 20 3 1
bi 17 16 8 1
bi 18 17 4 1
bi 19 18 3 1
bi 20 19 2 1
uni 16 21 8 1
uni 22 17 4 1
uni 18 23 8 1
uni 24 19 9 1
uni 20 25 1 1
bi 22 21 8 1
bi 23 22 3 1
bi 24 23 11 1
bi 25 24 8 1
LISTA_ARISTAS_NOREQ :
CORDENADAS_NODOS :  
RESTRICCIONES :
1 3 5
4 5 3
1 3 2
NODOS_INICIALES:
6
3
5
NODOS_TERMINO: